COLUMNS

passenger_count
pickup_ID
dropoff_ID
request_time_sec
pickup_district
dropoff_district
LDuals
IDuals
vehicle_ID
pick_position
drop_position

REQUESTS_INFO
2      857       527       28975     290       52        158       158       49        1         2         
2      336       36        29007     277       98        132       132       286       1         2         
3      905       444       29001     290       168       106       106       345       1         3         
3      386       858       28984     299       290       170       170       374       1         3         
1      894       392       29003     291       52        123       123       428       1         2         
1      909       925       28996     290       290       145       145       453       1         2         
1      926       669       28987     290       280       126       126       613       1         2         
3      905       444       29001     290       168       106       106       655       1         2         
1      914       697       28983     291       189       154       154       661       1         2         
1      840       905       28982     290       290       113       113       665       1         2         
1      864       605       28998     290       189       116       116       792       1         2         
3      908       994       28960     290       84        197       197       912       1         2         
3      923       21        28799     290       98        349       349       945       1         2         
1      837       671       28991     290       280       119       119       959       1         2         
1      889       624       28949     290       189       171       171       961       1         2         
1      209       674       28992     266       189       117       117       987       1         3         
1      891       758       28995     291       131       128       128       1127      1         2         
1      1090      859       28940     291       290       214       214       1132      1         2         
1      971       693       28812     290       280       308       308       1133      1         2         
3      1291      1218      28993     129       84        136       136       1158      1         2         
1      732       618       28988     131       131       102       102       1169      1         3         
1      827       392       28994     291       52        113       113       1186      1         2         
2      913       621       28999     291       280       144       144       1231      1         2         
1      349       904       28987     127       290       105       105       1266      1         4         
3      913       621       28999     291       280       144       144       1288      1         2         
1      557       417       29010     189       100       0         0         0         0         0         
1      313       123       29010     87        54        0         0         0         0         0         
1      557       116       29010     189       9         0         0         0         0         0         
2      287       556       29010     299       199       0         0         0         0         0         
1      441       696       29010     168       189       0         0         0         0         0         
1      553       579       29010     189       189       0         0         0         0         0         
3      728       108       29010     290       178       0         0         0         0         0         
2      728       108       29010     290       178       0         0         0         0         0         
1      195       534       29012     207       199       0         0         0         0         0         
1      434       533       29012     52        199       0         0         0         0         0         
1      458       627       29012     52        189       0         0         0         0         0         
1      693       651       29012     280       189       0         0         0         0         0         
1      813       651       29013     290       189       0         0         0         0         0         
3      478       598       29013     52        189       0         0         0         0         0         
3      478       598       29013     52        189       0         0         0         0         0         
3      134       9         29013     9         98        0         0         0         0         0         
2      134       9         29013     9         98        0         0         0         0         0         
1      1218      1245      29014     84        192       0         0         0         0         0         
1      151       394       29015     9         100       0         0         0         0         0         
4      924       928       29015     290       290       0         0         0         0         0         
1      1087      698       29016     291       189       0         0         0         0         0         
1      969       925       29016     290       290       0         0         0         0         0         
2      505       579       29017     52        189       0         0         0         0         0         
3      598       670       29017     189       280       0         0         0         0         0         
1      1579      505       29017     296       52        0         0         0         0         0         
3      937       925       29017     291       290       0         0         0         0         0         
1      631       526       29017     189       52        0         0         0         0         0         
1      663       549       29017     131       52        0         0         0         0         0         
3      505       579       29017     52        189       0         0         0         0         0         
1      663       507       29017     131       189       0         0         0         0         0         
1      512       171       29018     199       286       0         0         0         0         0         
2      717       629       29018     189       189       0         0         0         0         0         
1      604       675       29018     189       189       0         0         0         0         0         
1      270       189       29018     127       286       0         0         0         0         0         
1      455       463       29018     52        168       0         0         0         0         0         
1      655       557       29018     189       189       0         0         0         0         0         
4      628       392       29019     189       52        0         0         0         0         0         
2      909       372       29019     290       119       0         0         0         0         0         
2      746       649       29019     290       189       0         0         0         0         0         
1      814       20        29019     290       98        0         0         0         0         0         
1      793       619       29021     290       131       0         0         0         0         0         
2      695       676       29022     189       189       0         0         0         0         0         
3      695       676       29022     189       189       0         0         0         0         0         
1      632       10        29022     189       98        0         0         0         0         0         
1      398       434       29022     168       52        0         0         0         0         0         
1      527       335       29023     52        119       0         0         0         0         0         
3      924       649       29023     290       189       0         0         0         0         0         
1      676       354       29023     189       119       0         0         0         0         0         
1      742       676       29023     290       189       0         0         0         0         0         
1      862       698       29024     290       189       0         0         0         0         0         
1      598       648       29024     189       189       0         0         0         0         0         
1      824       759       29024     291       131       0         0         0         0         0         
1      749       606       29024     290       189       0         0         0         0         0         
1      304       716       29025     299       189       0         0         0         0         0         
1      248       534       29025     266       199       0         0         0         0         0         
1      393       523       29025     52        52        0         0         0         0         0         
1      556       1126      29025     199       291       0         0         0         0         0         
2      722       968       29025     290       290       0         0         0         0         0         
1      950       603       29025     290       189       0         0         0         0         0         
1      463       582       29026     168       189       0         0         0         0         0         
1      724       604       29026     290       189       0         0         0         0         0         
2      549       454       29026     52        52        0         0         0         0         0         
1      337       120       29027     277       57        0         0         0         0         0         
1      814       1218      29027     290       84        0         0         0         0         0         
1      333       581       29027     119       189       0         0         0         0         0         
1      689       759       29027     131       131       0         0         0         0         0         
1      277       356       29027     87        119       0         0         0         0         0         
2      484       533       29028     189       199       0         0         0         0         0         
3      484       533       29028     189       199       0         0         0         0         0         
1      45        748       29028     98        290       0         0         0         0         0         
2      1132      1209      29029     291       192       0         0         0         0         0         
2      693       507       29029     280       189       0         0         0         0         0         
1      679       834       29030     290       290       0         0         0         0         0         
1      1066      1504      29030     291       296       0         0         0         0         0         
1      421       726       29030     168       290       0         0         0         0         0         
1      991       154       29030     290       286       0         0         0         0         0         
1      738       485       29030     189       189       0         0         0         0         0         
1      904       699       29030     290       290       0         0         0         0         0         
1      666       749       29031     131       290       0         0         0         0         0         
2      275       284       29033     87        299       0         0         0         0         0         
1      527       368       29033     52        299       0         0         0         0         0         
3      275       284       29033     87        299       0         0         0         0         0         
1      758       651       29033     131       189       0         0         0         0         0         
1      1095      1193      29033     84        129       0         0         0         0         0         
2      389       462       29033     299       189       0         0         0         0         0         
1      434       386       29034     52        299       0         0         0         0         0         
1      791       1032      29034     290       84        0         0         0         0         0         
1      458       720       29035     52        290       0         0         0         0         0         
1      873       915       29035     291       291       0         0         0         0         0         
1      481       720       29035     189       290       0         0         0         0         0         
1      726       678       29036     290       290       0         0         0         0         0         
2      735       1032      29036     131       84        0         0         0         0         0         
3      735       1032      29036     131       84        0         0         0         0         0         
2      643       717       29036     131       189       0         0         0         0         0         
1      883       575       29037     290       189       0         0         0         0         0         
1      884       357       29037     290       277       0         0         0         0         0         
1      502       60        29037     52        9         0         0         0         0         0         
1      793       508       29037     290       199       0         0         0         0         0         
1      527       313       29038     52        87        0         0         0         0         0         
1      838       719       29038     290       189       0         0         0         0         0         
2      745       527       29038     290       52        0         0         0         0         0         
1      608       439       29039     189       189       0         0         0         0         0         
1      747       699       29039     290       290       0         0         0         0         0         
